22500
13
14
22
30
47
50
52
56
74
75
84
1
4
16
23
24
25
29
40
45
46
58
60
61
65
67
68
72
73
87
90
100
6
8
10
12
15
19
20
21
28
48
49
64
78
80
86
88
89
92
95
98
3
7
9
18
31
36
39
42
43
53
55
69
70
77
81
82
85
93
94
5
27
32
34
37
41
44
57
59
62
63
76
97
99
2
17
26
35
51
54
83
96
11
38
66
91
33
71
79
